9
1 2 10
1 3 15
1 4 10
1 5 30
1 6 20
1 7 10
1 8 15
1 9 16
2 3 16
2 4 62
2 5 34
2 6 23
2 7 21
2 8 52
2 9 22
3 4 13
3 5 3
3 6 63
3 7 62
3 8 23
3 9 46
4 5 84
4 6 23
4 7 63
4 8 12
4 9 37
5 6 74
5 7 53
5 8 83
5 9 94
6 7 17
6 8 46
6 9 23
7 8 64
7 9 43
8 9 43
